eprime/kakurasu.param
letting dims be 4
letting row_sums be [2,3,10,3]
letting col_sums be [3,4,9,3]